32      5       
12      15      15      20      17      
0       0       0       0       0       0       3       2       3       4       
3       9       0       0       10      9       3       6       7       9       
2       5       0       0       5       0       3       5       8       10      
7       0       7       0       0       4       1       15      
2       3       0       7       0       6       1       18      
2       6       0       2       7       0       1       22      
2       6       8       0       4       3       1       20      
9       0       5       0       0       5       1       27      
3       0       0       8       0       4       2       11      26      
10      0       0       4       10      0       1       17      
3       0       0       0       5       0       2       12      18      
6       0       0       0       6       0       2       13      16      
2       2       0       0       0       1       1       14      
4       9       9       0       0       10      3       19      21      28      
3       8       0       0       0       0       2       21      23      
7       1       6       0       0       2       2       22      25      
3       7       7       3       7       0       1       25      
5       1       0       3       6       5       1       19      
7       1       0       0       0       1       1       20      
6       0       6       5       10      7       1       31      
7       9       0       0       2       3       1       27      
5       1       5       4       0       0       1       27      
1       6       0       0       0       0       3       24      26      30      
4       0       3       0       7       9       2       29      31      
5       0       3       8       2       0       1       29      
10      0       6       0       1       2       1       29      
3       0       0       5       8       3       1       30      
2       0       0       0       5       1       2       30      31      
3       0       0       5       0       4       1       32      
1       0       4       0       0       0       1       32      
3       6       0       0       7       6       1       32      
0       0       0       0       0       0       0       